c Random Network
p min 10 20
n 1 1
n 10 -1
c Transformed from a max-flow problem.
a 	 6	7	0	2	0
a 	 2	7	0	25	0
a 	 1	2	0	4	0
a 	 5	6	0	2	0
a 	 6	5	0	41	0
a 	 2	9	0	36	0
a 	 2	5	0	46	0
a 	 1	6	0	33	0
a 	 6	1	0	12	0
a 	 4	9	0	10	0
a 	 8	9	0	41	0
a 	 7	8	0	25	0
a 	 2	1	0	43	0
a 	 2	4	0	31	0
a 	 4	7	0	13	0
a 	 9	4	0	41	0
a 	 4	5	0	23	0
a 	 4	2	0	29	0
a 	 4	1	0	32	0
a 	 10	5	0	20	0